NAME : netgen24-5_24
COMMENT : Generated using the function generateClusteredNetwork from the R-package netgen (Bossek,2015) - Number of clusters: 5
TYPE : TSP
DIMENSION : 24
EDGE_WEIGHT_TYPE : EUC_2D
NODE_COORD_SECTION
1 8.660966249 67.5324602329
2 16.289261151 82.4400331894
3 12.7319655407 67.6736745101
4 6.4585035079 70.0495942047
5 59.9950833099 19.5774553043
6 66.2191147992 33.0938001187
7 59.177788168 5.737334446
8 58.2560340072 5.2206286345
9 59.5503385786 24.7553765034
10 62.5119175277 7.0892878244
11 78.8461860487 9.7857291767
12 68.6792922837 16.3777046063
13 37.8994124587 76.5563650893
14 42.296753533 87.5501918467
15 50.1190584981 84.5667434787
16 37.5725833512 82.1182189795
17 85.0740751784 46.1255526829
18 95.48164786 42.0881502281
19 73.1734120251 40.9725070644
20 87.5311545562 28.6368972143
21 23.6680752072 21.852076441
22 30.3381203248 26.7699099798
23 21.76303234 28.5156310492
24 25.7697393936 17.2655339968
EOF
